NAME : kroE100-R-3-0-a.37935.tour
COMMENT : Length = 37935
COMMENT : Found by LKH-3 [Keld Helsgaun] Tue Jul 30 13:14:56 2024
TYPE : TOUR
DIMENSION : 100
TOUR_SECTION
1
73
52
61
71
89
79
26
46
69
74
12
63
95
15
20
60
54
65
42
22
86
30
13
75
41
27
82
11
37
34
53
78
100
24
94
43
39
93
55
6
70
4
2
67
87
66
90
5
8
97
10
25
45
17
35
88
62
56
23
28
36
59
32
7
21
47
3
51
98
76
58
64
49
84
40
99
50
80
57
31
9
92
96
85
77
29
18
19
91
48
33
38
68
72
44
14
81
16
83
-1
EOF
